c FILE /home/rafael/Documents/HappySet/MIHS/inputs/happygen/output/graph_scale_free_k3_p0.1_v50_20241127_082408.txt
c SOURCE This is a scale-free graph formed for the happy graph colouring problem.
c DESCRIPTION It was generated using the problem generator of Rhyd Lewis
c
c GRAPH STATS
c Seed                             = 958743170
c Number of Nodes                  = 50
c Number of colours k              = 3
c Number of pre-assignments        = 5
c Number of links per new node     = 5
c Density                          = 0.191837
c 
c The degrees of nodes 1 to 50, respectively, are as follows 
c [29, 25, 25, 19, 17, 17, 15, 14, 13, 13, 12, 12, 11, 10, 10, 10, 9, 9, 9, 9, 9, 8, 8, 8, 8, 7, 
c  7, 7, 7, 6, 6, 6, 6, 6, 6, 6, 6, 5, 5, 5, 5, 5, 5, 5, 5, 5, 5, 5, 5, 5] 
c  
p edge 50 235 3
e 1 2
e 1 3
e 1 4
e 1 5
e 1 6
e 1 7
e 1 8
e 1 9
e 1 11
e 1 12
e 1 13
e 1 15
e 1 17
e 1 21
e 1 22
e 1 23
e 1 24
e 1 25
e 1 26
e 1 27
e 1 29
e 1 32
e 1 39
e 1 40
e 1 42
e 1 43
e 1 44
e 1 45
e 1 48
e 2 4
e 2 5
e 2 6
e 2 7
e 2 8
e 2 9
e 2 10
e 2 12
e 2 15
e 2 18
e 2 19
e 2 20
e 2 21
e 2 22
e 2 23
e 2 24
e 2 27
e 2 28
e 2 32
e 2 35
e 2 37
e 2 42
e 2 44
e 2 46
e 3 5
e 3 6
e 3 8
e 3 10
e 3 12
e 3 13
e 3 17
e 3 19
e 3 20
e 3 21
e 3 24
e 3 27
e 3 28
e 3 29
e 3 32
e 3 33
e 3 35
e 3 37
e 3 38
e 3 39
e 3 40
e 3 42
e 3 44
e 3 49
e 4 5
e 4 6
e 4 9
e 4 10
e 4 11
e 4 12
e 4 13
e 4 17
e 4 18
e 4 19
e 4 22
e 4 25
e 4 28
e 4 31
e 4 38
e 4 47
e 4 48
e 5 6
e 5 7
e 5 8
e 5 10
e 5 11
e 5 22
e 5 30
e 5 31
e 5 37
e 5 39
e 5 46
e 5 47
e 5 48
e 6 7
e 6 9
e 6 11
e 6 14
e 6 16
e 6 20
e 6 22
e 6 28
e 6 29
e 6 38
e 6 47
e 6 48
e 7 8
e 7 11
e 7 13
e 7 21
e 7 22
e 7 23
e 7 24
e 7 25
e 7 32
e 7 35
e 7 49
e 8 9
e 8 11
e 8 13
e 8 14
e 8 25
e 8 26
e 8 36
e 8 42
e 8 49
e 9 14
e 9 17
e 9 18
e 9 26
e 9 33
e 9 34
e 9 35
e 9 50
e 10 11
e 10 15
e 10 18
e 10 19
e 10 21
e 10 26
e 10 28
e 10 29
e 10 30
e 11 13
e 11 19
e 11 23
e 11 34
e 11 36
e 12 16
e 12 19
e 12 23
e 12 34
e 12 40
e 12 41
e 12 42
e 12 45
e 13 16
e 13 17
e 13 29
e 13 36
e 13 41
e 14 15
e 14 17
e 14 19
e 14 27
e 14 31
e 14 39
e 14 41
e 15 16
e 15 20
e 15 26
e 15 40
e 15 44
e 15 50
e 16 18
e 16 27
e 16 31
e 16 43
e 16 45
e 16 50
e 17 18
e 17 26
e 17 30
e 18 30
e 18 36
e 18 38
e 19 37
e 19 50
e 20 22
e 20 24
e 20 35
e 20 41
e 20 46
e 21 33
e 21 37
e 21 43
e 21 48
e 22 30
e 23 33
e 23 38
e 23 40
e 24 25
e 24 31
e 24 47
e 25 33
e 25 41
e 25 46
e 26 46
e 27 34
e 27 44
e 28 43
e 28 45
e 29 36
e 29 49
e 30 39
e 31 32
e 32 43
e 33 34
e 34 47
e 35 45
e 36 50
e 37 49
n 6 1
n 28 1
n 32 2
n 34 3
n 40 2
